p cnf 430 1488
-191 -124 0
-191 -164 0
-191 167 0
-191 -58 0
-191 -42 0
191 124 164 -167 58 42 0
-192 14 0
-192 152 0
-192 -156 0
-192 -27 0
-192 -4 0
192 -14 -152 156 27 4 0
-193 104 0
-193 -146 0
-193 66 0
-193 -15 0
-193 -119 0
193 -104 146 -66 15 119 0
-194 179 0
-194 13 0
-194 -138 0
-194 111 0
-194 -166 0
194 -179 -13 138 -111 166 0
-195 -190 0
-195 123 0
-195 -149 0
-195 -159 0
-195 -72 0
195 190 -123 149 159 72 0
191 192 193 194 195 0
-196 186 0
-196 122 0
-196 172 0
-196 149 0
-196 159 0
196 -186 -122 -172 -149 -159 0
-197 91 0
-197 17 0
-197 87 0
-197 -11 0
-197 90 0
197 -91 -17 -87 11 -90 0
-198 -163 0
-198 -39 0
-198 -122 0
-198 -114 0
-198 90 0
198 163 39 122 114 -90 0
-199 34 0
-199 -189 0
-199 -129 0
-199 -120 0
-199 69 0
199 -34 189 129 120 -69 0
-200 58 0
-200 118 0
-200 -127 0
-200 -14 0
-200 -3 0
200 -58 -118 127 14 3 0
196 197 198 199 200 0
-201 154 0
-201 -164 0
-201 22 0
-201 -171 0
-201 -12 0
201 -154 164 -22 171 12 0
-202 154 0
-202 -75 0
-202 -150 0
-202 -8 0
-202 37 0
202 -154 75 150 8 -37 0
-203 169 0
-203 64 0
-203 190 0
-203 12 0
-203 105 0
203 -169 -64 -190 -12 -105 0
-204 165 0
-204 -137 0
-204 -102 0
-204 -35 0
-204 -56 0
204 -165 137 102 35 56 0
-205 -106 0
-205 45 0
-205 -55 0
-205 -135 0
-205 -99 0
205 106 -45 55 135 99 0
201 202 203 204 205 0
-206 -105 0
-206 141 0
-206 124 0
-206 -49 0
-206 -131 0
206 105 -141 -124 49 131 0
-207 -93 0
-207 189 0
-207 145 0
-207 128 0
-207 122 0
207 93 -189 -145 -128 -122 0
-208 185 0
-208 -60 0
-208 -24 0
-208 -145 0
-208 -77 0
208 -185 60 24 145 77 0
-209 -161 0
-209 -56 0
-209 -21 0
-209 116 0
-209 44 0
209 161 56 21 -116 -44 0
-210 175 0
-210 -156 0
-210 -52 0
-210 -1 0
-210 38 0
210 -175 156 52 1 -38 0
206 207 208 209 210 0
-211 71 0
-211 118 0
-211 -74 0
-211 -114 0
-211 34 0
211 -71 -118 74 114 -34 0
-212 -133 0
-212 56 0
-212 -137 0
-212 -35 0
-212 162 0
212 133 -56 137 35 -162 0
-213 36 0
-213 16 0
-213 -130 0
-213 -119 0
-213 -118 0
213 -36 -16 130 119 118 0
-214 -154 0
-214 -13 0
-214 102 0
-214 -31 0
-214 36 0
214 154 13 -102 31 -36 0
-215 -30 0
-215 -154 0
-215 158 0
-215 -166 0
-215 -51 0
215 30 154 -158 166 51 0
211 212 213 214 215 0
-216 -77 0
-216 3 0
-216 147 0
-216 41 0
-216 -119 0
216 77 -3 -147 -41 119 0
-217 -78 0
-217 -117 0
-217 -185 0
-217 122 0
-217 149 0
217 78 117 185 -122 -149 0
-218 -113 0
-218 -172 0
-218 -115 0
-218 83 0
-218 6 0
218 113 172 115 -83 -6 0
-219 172 0
-219 -190 0
-219 57 0
-219 -166 0
-219 -48 0
219 -172 190 -57 166 48 0
-220 -150 0
-220 182 0
-220 -77 0
-220 15 0
-220 -85 0
220 150 -182 77 -15 85 0
216 217 218 219 220 0
-221 -90 0
-221 189 0
-221 98 0
-221 120 0
-221 186 0
221 90 -189 -98 -120 -186 0
-222 83 0
-222 111 0
-222 -91 0
-222 67 0
-222 41 0
222 -83 -111 91 -67 -41 0
-223 145 0
-223 110 0
-223 87 0
-223 -66 0
-223 -187 0
223 -145 -110 -87 66 187 0
-224 -84 0
-224 177 0
-224 176 0
-224 138 0
-224 102 0
224 84 -177 -176 -138 -102 0
-225 59 0
-225 23 0
-225 -63 0
-225 140 0
-225 -78 0
225 -59 -23 63 -140 78 0
221 222 223 224 225 0
-226 -109 0
-226 70 0
-226 -107 0
-226 8 0
-226 -27 0
226 109 -70 107 -8 27 0
-227 -181 0
-227 -111 0
-227 -116 0
-227 5 0
-227 -67 0
227 181 111 116 -5 67 0
-228 1 0
-228 187 0
-228 -132 0
-228 -6 0
-228 -15 0
228 -1 -187 132 6 15 0
-229 101 0
-229 -118 0
-229 91 0
-229 81 0
-229 181 0
229 -101 118 -91 -81 -181 0
-230 80 0
-230 -143 0
-230 -126 0
-230 -84 0
-230 -125 0
230 -80 143 126 84 125 0
226 227 228 229 230 0
-231 -144 0
-231 77 0
-231 -109 0
-231 89 0
-231 74 0
231 144 -77 109 -89 -74 0
-232 -41 0
-232 -53 0
-232 44 0
-232 135 0
-232 147 0
232 41 53 -44 -135 -147 0
-233 133 0
-233 177 0
-233 -83 0
-233 -146 0
-233 105 0
233 -133 -177 83 146 -105 0
-234 150 0
-234 -85 0
-234 130 0
-234 -53 0
-234 -167 0
234 -150 85 -130 53 167 0
-235 159 0
-235 167 0
-235 -43 0
-235 148 0
-235 -163 0
235 -159 -167 43 -148 163 0
231 232 233 234 235 0
-236 37 0
-236 146 0
-236 131 0
-236 -179 0
-236 34 0
236 -37 -146 -131 179 -34 0
-237 172 0
-237 144 0
-237 -125 0
-237 -31 0
-237 -93 0
237 -172 -144 125 31 93 0
-238 -128 0
-238 95 0
-238 -121 0
-238 -60 0
-238 177 0
238 128 -95 121 60 -177 0
-239 -61 0
-239 62 0
-239 -66 0
-239 -2 0
-239 -125 0
239 61 -62 66 2 125 0
-240 43 0
-240 -89 0
-240 -168 0
-240 -23 0
-240 82 0
240 -43 89 168 23 -82 0
236 237 238 239 240 0
-241 66 0
-241 -149 0
-241 2 0
-241 125 0
-241 129 0
241 -66 149 -2 -125 -129 0
-242 167 0
-242 -72 0
-242 -81 0
-242 -118 0
-242 -173 0
242 -167 72 81 118 173 0
-243 51 0
-243 -43 0
-243 160 0
-243 162 0
-243 147 0
243 -51 43 -160 -162 -147 0
-244 -5 0
-244 -100 0
-244 -130 0
-244 -108 0
-244 51 0
244 5 100 130 108 -51 0
-245 115 0
-245 90 0
-245 -85 0
-245 92 0
-245 -114 0
245 -115 -90 85 -92 114 0
241 242 243 244 245 0
-246 -87 0
-246 21 0
-246 66 0
-246 -68 0
-246 -89 0
246 87 -21 -66 68 89 0
-247 -24 0
-247 7 0
-247 115 0
-247 131 0
-247 156 0
247 24 -7 -115 -131 -156 0
-248 93 0
-248 -19 0
-248 77 0
-248 -166 0
-248 98 0
248 -93 19 -77 166 -98 0
-249 -180 0
-249 90 0
-249 -43 0
-249 81 0
-249 29 0
249 180 -90 43 -81 -29 0
-250 153 0
-250 -22 0
-250 -45 0
-250 -152 0
-250 71 0
250 -153 22 45 152 -71 0
246 247 248 249 250 0
-251 147 0
-251 -53 0
-251 -2 0
-251 154 0
-251 94 0
251 -147 53 2 -154 -94 0
-252 -47 0
-252 -69 0
-252 122 0
-252 -5 0
-252 81 0
252 47 69 -122 5 -81 0
-253 139 0
-253 -106 0
-253 34 0
-253 14 0
-253 190 0
253 -139 106 -34 -14 -190 0
-254 -3 0
-254 -63 0
-254 -62 0
-254 -154 0
-254 146 0
254 3 63 62 154 -146 0
-255 -161 0
-255 -91 0
-255 -12 0
-255 5 0
-255 25 0
255 161 91 12 -5 -25 0
251 252 253 254 255 0
-256 -21 0
-256 128 0
-256 89 0
-256 -158 0
-256 99 0
256 21 -128 -89 158 -99 0
-257 62 0
-257 121 0
-257 92 0
-257 71 0
-257 52 0
257 -62 -121 -92 -71 -52 0
-258 186 0
-258 -64 0
-258 34 0
-258 173 0
-258 -56 0
258 -186 64 -34 -173 56 0
-259 19 0
-259 -128 0
-259 -34 0
-259 -189 0
-259 -33 0
259 -19 128 34 189 33 0
-260 155 0
-260 -79 0
-260 166 0
-260 -170 0
-260 -171 0
260 -155 79 -166 170 171 0
256 257 258 259 260 0
-261 -150 0
-261 23 0
-261 -174 0
-261 188 0
-261 103 0
261 150 -23 174 -188 -103 0
-262 85 0
-262 120 0
-262 2 0
-262 8 0
-262 96 0
262 -85 -120 -2 -8 -96 0
-263 65 0
-263 60 0
-263 39 0
-263 -184 0
-263 73 0
263 -65 -60 -39 184 -73 0
-264 -4 0
-264 -61 0
-264 85 0
-264 149 0
-264 -116 0
264 4 61 -85 -149 116 0
-265 -187 0
-265 -183 0
-265 -146 0
-265 -27 0
-265 82 0
265 187 183 146 27 -82 0
261 262 263 264 265 0
-266 -90 0
-266 144 0
-266 39 0
-266 -74 0
-266 71 0
266 90 -144 -39 74 -71 0
-267 -24 0
-267 -37 0
-267 -138 0
-267 -144 0
-267 151 0
267 24 37 138 144 -151 0
-268 -81 0
-268 -157 0
-268 -188 0
-268 -156 0
-268 -21 0
268 81 157 188 156 21 0
-269 147 0
-269 47 0
-269 -182 0
-269 -179 0
-269 85 0
269 -147 -47 182 179 -85 0
-270 -47 0
-270 8 0
-270 58 0
-270 -133 0
-270 89 0
270 47 -8 -58 133 -89 0
266 267 268 269 270 0
-271 -22 0
-271 114 0
-271 -29 0
-271 100 0
-271 71 0
271 22 -114 29 -100 -71 0
-272 -13 0
-272 -88 0
-272 105 0
-272 164 0
-272 -43 0
272 13 88 -105 -164 43 0
-273 -181 0
-273 41 0
-273 -45 0
-273 -142 0
-273 -20 0
273 181 -41 45 142 20 0
-274 93 0
-274 139 0
-274 105 0
-274 -118 0
-274 7 0
274 -93 -139 -105 118 -7 0
-275 133 0
-275 -9 0
-275 -70 0
-275 -182 0
-275 -30 0
275 -133 9 70 182 30 0
271 272 273 274 275 0
-276 -81 0
-276 -74 0
-276 1 0
-276 -90 0
-276 17 0
276 81 74 -1 90 -17 0
-277 -51 0
-277 20 0
-277 -19 0
-277 -9 0
-277 -13 0
277 51 -20 19 9 13 0
-278 -167 0
-278 76 0
-278 -103 0
-278 -80 0
-278 -39 0
278 167 -76 103 80 39 0
-279 146 0
-279 50 0
-279 177 0
-279 -155 0
-279 121 0
279 -146 -50 -177 155 -121 0
-280 -165 0
-280 -171 0
-280 147 0
-280 -58 0
-280 124 0
280 165 171 -147 58 -124 0
276 277 278 279 280 0
-281 -69 0
-281 83 0
-281 50 0
-281 -34 0
-281 -132 0
281 69 -83 -50 34 132 0
-282 156 0
-282 94 0
-282 -152 0
-282 20 0
-282 -60 0
282 -156 -94 152 -20 60 0
-283 -91 0
-283 -22 0
-283 111 0
-283 8 0
-283 -137 0
283 91 22 -111 -8 137 0
-284 -62 0
-284 -101 0
-284 -100 0
-284 80 0
-284 74 0
284 62 101 100 -80 -74 0
-285 -110 0
-285 -83 0
-285 177 0
-285 -122 0
-285 -130 0
285 110 83 -177 122 130 0
281 282 283 284 285 0
-286 154 0
-286 -81 0
-286 123 0
-286 138 0
-286 -93 0
286 -154 81 -123 -138 93 0
-287 -161 0
-287 -171 0
-287 -105 0
-287 141 0
-287 -174 0
287 161 171 105 -141 174 0
-288 116 0
-288 -4 0
-288 -105 0
-288 57 0
-288 -113 0
288 -116 4 105 -57 113 0
-289 -40 0
-289 51 0
-289 -5 0
-289 157 0
-289 104 0
289 40 -51 5 -157 -104 0
-290 154 0
-290 2 0
-290 -151 0
-290 -106 0
-290 -15 0
290 -154 -2 151 106 15 0
286 287 288 289 290 0
-291 90 0
-291 155 0
-291 -164 0
-291 -83 0
-291 32 0
291 -90 -155 164 83 -32 0
-292 -119 0
-292 9 0
-292 -57 0
-292 -176 0
-292 -128 0
292 119 -9 57 176 128 0
-293 -151 0
-293 -54 0
-293 66 0
-293 -154 0
-293 -179 0
293 151 54 -66 154 179 0
-294 84 0
-294 -171 0
-294 101 0
-294 -43 0
-294 -52 0
294 -84 171 -101 43 52 0
-295 -55 0
-295 4 0
-295 134 0
-295 -179 0
-295 82 0
295 55 -4 -134 179 -82 0
291 292 293 294 295 0
-296 -81 0
-296 -43 0
-296 115 0
-296 162 0
-296 111 0
296 81 43 -115 -162 -111 0
-297 -77 0
-297 146 0
-297 -136 0
-297 -180 0
-297 35 0
297 77 -146 136 180 -35 0
-298 -75 0
-298 -141 0
-298 -125 0
-298 -45 0
-298 59 0
298 75 141 125 45 -59 0
-299 124 0
-299 -34 0
-299 43 0
-299 30 0
-299 26 0
299 -124 34 -43 -30 -26 0
-300 85 0
-300 18 0
-300 80 0
-300 69 0
-300 -178 0
300 -85 -18 -80 -69 178 0
296 297 298 299 300 0
-301 132 0
-301 -143 0
-301 -53 0
-301 -22 0
-301 101 0
301 -132 143 53 22 -101 0
-302 -109 0
-302 -136 0
-302 -83 0
-302 -39 0
-302 142 0
302 109 136 83 39 -142 0
-303 -165 0
-303 -145 0
-303 28 0
-303 -85 0
-303 156 0
303 165 145 -28 85 -156 0
-304 -174 0
-304 -101 0
-304 72 0
-304 -135 0
-304 -157 0
304 174 101 -72 135 157 0
-305 162 0
-305 -52 0
-305 21 0
-305 -189 0
-305 -39 0
305 -162 52 -21 189 39 0
301 302 303 304 305 0
-306 -25 0
-306 -37 0
-306 151 0
-306 -96 0
-306 -115 0
306 25 37 -151 96 115 0
-307 -78 0
-307 76 0
-307 -120 0
-307 -133 0
-307 -163 0
307 78 -76 120 133 163 0
-308 -177 0
-308 -43 0
-308 32 0
-308 190 0
-308 -53 0
308 177 43 -32 -190 53 0
-309 -136 0
-309 99 0
-309 -162 0
-309 171 0
-309 -131 0
309 136 -99 162 -171 131 0
-310 -179 0
-310 5 0
-310 -139 0
-310 39 0
-310 -118 0
310 179 -5 139 -39 118 0
306 307 308 309 310 0
-311 83 0
-311 -85 0
-311 -177 0
-311 -25 0
-311 -167 0
311 -83 85 177 25 167 0
-312 -152 0
-312 172 0
-312 -181 0
-312 126 0
-312 11 0
312 152 -172 181 -126 -11 0
-313 113 0
-313 137 0
-313 -101 0
-313 -39 0
-313 71 0
313 -113 -137 101 39 -71 0
-314 -180 0
-314 -187 0
-314 181 0
-314 -117 0
-314 80 0
314 180 187 -181 117 -80 0
-315 -66 0
-315 116 0
-315 120 0
-315 1 0
-315 -9 0
315 66 -116 -120 -1 9 0
311 312 313 314 315 0
-316 -38 0
-316 101 0
-316 -15 0
-316 -149 0
-316 -84 0
316 38 -101 15 149 84 0
-317 -28 0
-317 -108 0
-317 13 0
-317 84 0
-317 -40 0
317 28 108 -13 -84 40 0
-318 -37 0
-318 -110 0
-318 125 0
-318 -139 0
-318 65 0
318 37 110 -125 139 -65 0
-319 134 0
-319 25 0
-319 89 0
-319 189 0
-319 182 0
319 -134 -25 -89 -189 -182 0
-320 -92 0
-320 41 0
-320 -29 0
-320 24 0
-320 108 0
320 92 -41 29 -24 -108 0
316 317 318 319 320 0
-321 -57 0
-321 -49 0
-321 32 0
-321 -151 0
-321 66 0
321 57 49 -32 151 -66 0
-322 173 0
-322 -189 0
-322 168 0
-322 -27 0
-322 187 0
322 -173 189 -168 27 -187 0
-323 -41 0
-323 88 0
-323 -49 0
-323 7 0
-323 -113 0
323 41 -88 49 -7 113 0
-324 6 0
-324 -164 0
-324 -158 0
-324 54 0
-324 114 0
324 -6 164 158 -54 -114 0
-325 -17 0
-325 -177 0
-325 -68 0
-325 -137 0
-325 27 0
325 17 177 68 137 -27 0
321 322 323 324 325 0
-326 68 0
-326 -41 0
-326 31 0
-326 160 0
-326 -119 0
326 -68 41 -31 -160 119 0
-327 -101 0
-327 159 0
-327 -81 0
-327 23 0
-327 -105 0
327 101 -159 81 -23 105 0
-328 -182 0
-328 -46 0
-328 -185 0
-328 -89 0
-328 126 0
328 182 46 185 89 -126 0
-329 -32 0
-329 190 0
-329 147 0
-329 -9 0
-329 -116 0
329 32 -190 -147 9 116 0
-330 -152 0
-330 35 0
-330 -42 0
-330 -45 0
-330 -180 0
330 152 -35 42 45 180 0
326 327 328 329 330 0
-331 -127 0
-331 -51 0
-331 37 0
-331 1 0
-331 185 0
331 127 51 -37 -1 -185 0
-332 183 0
-332 6 0
-332 169 0
-332 -136 0
-332 92 0
332 -183 -6 -169 136 -92 0
-333 39 0
-333 26 0
-333 28 0
-333 -2 0
-333 -150 0
333 -39 -26 -28 2 150 0
-334 111 0
-334 189 0
-334 -5 0
-334 132 0
-334 181 0
334 -111 -189 5 -132 -181 0
-335 -176 0
-335 158 0
-335 -160 0
-335 -100 0
-335 35 0
335 176 -158 160 100 -35 0
331 332 333 334 335 0
-336 -181 0
-336 53 0
-336 116 0
-336 -102 0
-336 -141 0
336 181 -53 -116 102 141 0
-337 -116 0
-337 163 0
-337 140 0
-337 -173 0
-337 12 0
337 116 -163 -140 173 -12 0
-338 -153 0
-338 -96 0
-338 101 0
-338 138 0
-338 -187 0
338 153 96 -101 -138 187 0
-339 -13 0
-339 64 0
-339 34 0
-339 -188 0
-339 24 0
339 13 -64 -34 188 -24 0
-340 -180 0
-340 -12 0
-340 -42 0
-340 187 0
-340 13 0
340 180 12 42 -187 -13 0
336 337 338 339 340 0
-341 -86 0
-341 -164 0
-341 -50 0
-341 -82 0
-341 95 0
341 86 164 50 82 -95 0
-342 -70 0
-342 -138 0
-342 16 0
-342 107 0
-342 11 0
342 70 138 -16 -107 -11 0
-343 -163 0
-343 131 0
-343 156 0
-343 -113 0
-343 -82 0
343 163 -131 -156 113 82 0
-344 -86 0
-344 126 0
-344 -159 0
-344 -44 0
-344 -134 0
344 86 -126 159 44 134 0
-345 118 0
-345 104 0
-345 167 0
-345 -185 0
-345 -146 0
345 -118 -104 -167 185 146 0
341 342 343 344 345 0
-346 -179 0
-346 129 0
-346 -190 0
-346 -171 0
-346 152 0
346 179 -129 190 171 -152 0
-347 85 0
-347 -100 0
-347 41 0
-347 7 0
-347 107 0
347 -85 100 -41 -7 -107 0
-348 -58 0
-348 34 0
-348 69 0
-348 20 0
-348 -113 0
348 58 -34 -69 -20 113 0
-349 153 0
-349 8 0
-349 -186 0
-349 132 0
-349 146 0
349 -153 -8 186 -132 -146 0
-350 -76 0
-350 -188 0
-350 -72 0
-350 177 0
-350 50 0
350 76 188 72 -177 -50 0
346 347 348 349 350 0
-351 -156 0
-351 -23 0
-351 160 0
-351 132 0
-351 125 0
351 156 23 -160 -132 -125 0
-352 182 0
-352 168 0
-352 181 0
-352 -91 0
-352 -48 0
352 -182 -168 -181 91 48 0
-353 19 0
-353 142 0
-353 158 0
-353 -154 0
-353 -186 0
353 -19 -142 -158 154 186 0
-354 14 0
-354 9 0
-354 -119 0
-354 -168 0
-354 187 0
354 -14 -9 119 168 -187 0
-355 179 0
-355 128 0
-355 117 0
-355 162 0
-355 -182 0
355 -179 -128 -117 -162 182 0
351 352 353 354 355 0
-356 -46 0
-356 -167 0
-356 -52 0
-356 16 0
-356 -180 0
356 46 167 52 -16 180 0
-357 109 0
-357 -26 0
-357 95 0
-357 175 0
-357 42 0
357 -109 26 -95 -175 -42 0
-358 -185 0
-358 -11 0
-358 -64 0
-358 163 0
-358 168 0
358 185 11 64 -163 -168 0
-359 8 0
-359 -142 0
-359 -16 0
-359 178 0
-359 -70 0
359 -8 142 16 -178 70 0
-360 -25 0
-360 -4 0
-360 60 0
-360 -116 0
-360 79 0
360 25 4 -60 116 -79 0
356 357 358 359 360 0
-361 -2 0
-361 105 0
-361 33 0
-361 135 0
-361 83 0
361 2 -105 -33 -135 -83 0
-362 16 0
-362 -72 0
-362 175 0
-362 23 0
-362 57 0
362 -16 72 -175 -23 -57 0
-363 -182 0
-363 184 0
-363 126 0
-363 -91 0
-363 6 0
363 182 -184 -126 91 -6 0
-364 -79 0
-364 83 0
-364 107 0
-364 101 0
-364 -112 0
364 79 -83 -107 -101 112 0
-365 15 0
-365 99 0
-365 43 0
-365 41 0
-365 -70 0
365 -15 -99 -43 -41 70 0
361 362 363 364 365 0
-366 181 0
-366 -17 0
-366 70 0
-366 51 0
-366 117 0
366 -181 17 -70 -51 -117 0
-367 -188 0
-367 -47 0
-367 181 0
-367 -121 0
-367 62 0
367 188 47 -181 121 -62 0
-368 88 0
-368 -13 0
-368 79 0
-368 34 0
-368 127 0
368 -88 13 -79 -34 -127 0
-369 73 0
-369 -60 0
-369 146 0
-369 -19 0
-369 -140 0
369 -73 60 -146 19 140 0
-370 -130 0
-370 -46 0
-370 75 0
-370 -85 0
-370 171 0
370 130 46 -75 85 -171 0
366 367 368 369 370 0
-371 122 0
-371 81 0
-371 -142 0
-371 59 0
-371 134 0
371 -122 -81 142 -59 -134 0
-372 137 0
-372 59 0
-372 33 0
-372 -120 0
-372 83 0
372 -137 -59 -33 120 -83 0
-373 -93 0
-373 43 0
-373 141 0
-373 155 0
-373 -90 0
373 93 -43 -141 -155 90 0
-374 -112 0
-374 -22 0
-374 -73 0
-374 65 0
-374 85 0
374 112 22 73 -65 -85 0
-375 -91 0
-375 8 0
-375 142 0
-375 -99 0
-375 -158 0
375 91 -8 -142 99 158 0
371 372 373 374 375 0
-376 130 0
-376 45 0
-376 -90 0
-376 27 0
-376 -37 0
376 -130 -45 90 -27 37 0
-377 -86 0
-377 96 0
-377 27 0
-377 77 0
-377 -184 0
377 86 -96 -27 -77 184 0
-378 -37 0
-378 81 0
-378 46 0
-378 -62 0
-378 27 0
378 37 -81 -46 62 -27 0
-379 1 0
-379 -146 0
-379 9 0
-379 -102 0
-379 -13 0
379 -1 146 -9 102 13 0
-380 174 0
-380 -188 0
-380 48 0
-380 137 0
-380 81 0
380 -174 188 -48 -137 -81 0
376 377 378 379 380 0
-381 -134 0
-381 86 0
-381 -148 0
-381 72 0
-381 -187 0
381 134 -86 148 -72 187 0
-382 78 0
-382 -53 0
-382 -166 0
-382 54 0
-382 32 0
382 -78 53 166 -54 -32 0
-383 180 0
-383 14 0
-383 -108 0
-383 -148 0
-383 96 0
383 -180 -14 108 148 -96 0
-384 -77 0
-384 97 0
-384 -84 0
-384 127 0
-384 -113 0
384 77 -97 84 -127 113 0
-385 151 0
-385 139 0
-385 178 0
-385 22 0
-385 -92 0
385 -151 -139 -178 -22 92 0
381 382 383 384 385 0
-386 6 0
-386 -176 0
-386 175 0
-386 41 0
-386 59 0
386 -6 176 -175 -41 -59 0
-387 33 0
-387 95 0
-387 -146 0
-387 97 0
-387 137 0
387 -33 -95 146 -97 -137 0
-388 -175 0
-388 8 0
-388 -167 0
-388 -57 0
-388 153 0
388 175 -8 167 57 -153 0
-389 166 0
-389 8 0
-389 -80 0
-389 -46 0
-389 1 0
389 -166 -8 80 46 -1 0
-390 123 0
-390 32 0
-390 -99 0
-390 65 0
-390 -141 0
390 -123 -32 99 -65 141 0
386 387 388 389 390 0
-391 90 0
-391 -33 0
-391 133 0
-391 135 0
-391 93 0
391 -90 33 -133 -135 -93 0
-392 -144 0
-392 6 0
-392 86 0
-392 36 0
-392 -78 0
392 144 -6 -86 -36 78 0
-393 113 0
-393 -138 0
-393 -189 0
-393 156 0
-393 -81 0
393 -113 138 189 -156 81 0
-394 -102 0
-394 13 0
-394 -92 0
-394 -87 0
-394 -41 0
394 102 -13 92 87 41 0
-395 -93 0
-395 98 0
-395 -181 0
-395 -153 0
-395 8 0
395 93 -98 181 153 -8 0
391 392 393 394 395 0
-396 -16 0
-396 10 0
-396 -159 0
-396 -73 0
-396 -118 0
396 16 -10 159 73 118 0
-397 -178 0
-397 -145 0
-397 3 0
-397 -181 0
-397 39 0
397 178 145 -3 181 -39 0
-398 172 0
-398 189 0
-398 102 0
-398 -26 0
-398 -131 0
398 -172 -189 -102 26 131 0
-399 -177 0
-399 163 0
-399 -128 0
-399 -58 0
-399 -61 0
399 177 -163 128 58 61 0
-400 78 0
-400 13 0
-400 185 0
-400 18 0
-400 24 0
400 -78 -13 -185 -18 -24 0
396 397 398 399 400 0
-401 164 0
-401 124 0
-401 -79 0
-401 81 0
-401 -155 0
401 -164 -124 79 -81 155 0
-402 164 0
-402 -149 0
-402 -10 0
-402 156 0
-402 -116 0
402 -164 149 10 -156 116 0
-403 -11 0
-403 142 0
-403 91 0
-403 -154 0
-403 157 0
403 11 -142 -91 154 -157 0
-404 135 0
-404 -108 0
-404 109 0
-404 104 0
-404 -28 0
404 -135 108 -109 -104 28 0
-405 159 0
-405 129 0
-405 -141 0
-405 81 0
-405 -107 0
405 -159 -129 141 -81 107 0
401 402 403 404 405 0
-406 -164 0
-406 -19 0
-406 43 0
-406 64 0
-406 -118 0
406 164 19 -43 -64 118 0
-407 14 0
-407 -62 0
-407 161 0
-407 154 0
-407 63 0
407 -14 62 -161 -154 -63 0
-408 -19 0
-408 106 0
-408 188 0
-408 151 0
-408 -40 0
408 19 -106 -188 -151 40 0
-409 188 0
-409 83 0
-409 97 0
-409 -124 0
-409 -16 0
409 -188 -83 -97 124 16 0
-410 -175 0
-410 -98 0
-410 22 0
-410 170 0
-410 -15 0
410 175 98 -22 -170 15 0
406 407 408 409 410 0
-411 74 0
-411 5 0
-411 -113 0
-411 85 0
-411 117 0
411 -74 -5 113 -85 -117 0
-412 129 0
-412 37 0
-412 167 0
-412 -144 0
-412 -75 0
412 -129 -37 -167 144 75 0
-413 158 0
-413 132 0
-413 26 0
-413 -24 0
-413 -75 0
413 -158 -132 -26 24 75 0
-414 85 0
-414 -164 0
-414 -69 0
-414 -92 0
-414 -150 0
414 -85 164 69 92 150 0
-415 -8 0
-415 82 0
-415 -48 0
-415 -6 0
-415 -49 0
415 8 -82 48 6 49 0
411 412 413 414 415 0
-416 184 0
-416 79 0
-416 126 0
-416 59 0
-416 18 0
416 -184 -79 -126 -59 -18 0
-417 -40 0
-417 -23 0
-417 -59 0
-417 72 0
-417 -103 0
417 40 23 59 -72 103 0
-418 -96 0
-418 185 0
-418 122 0
-418 -125 0
-418 40 0
418 96 -185 -122 125 -40 0
-419 169 0
-419 -160 0
-419 123 0
-419 73 0
-419 8 0
419 -169 160 -123 -73 -8 0
-420 -158 0
-420 -33 0
-420 -155 0
-420 183 0
-420 76 0
420 158 33 155 -183 -76 0
416 417 418 419 420 0
-421 178 0
-421 140 0
-421 -141 0
-421 -84 0
-421 -128 0
421 -178 -140 141 84 128 0
-422 -109 0
-422 94 0
-422 24 0
-422 -91 0
-422 124 0
422 109 -94 -24 91 -124 0
-423 -86 0
-423 163 0
-423 -146 0
-423 117 0
-423 -63 0
423 86 -163 146 -117 63 0
-424 128 0
-424 -157 0
-424 70 0
-424 66 0
-424 58 0
424 -128 157 -70 -66 -58 0
-425 -69 0
-425 108 0
-425 -44 0
-425 -188 0
-425 152 0
425 69 -108 44 188 -152 0
421 422 423 424 425 0
-426 -176 0
-426 52 0
-426 147 0
-426 -131 0
-426 -94 0
426 176 -52 -147 131 94 0
-427 77 0
-427 -81 0
-427 -48 0
-427 176 0
-427 -63 0
427 -77 81 48 -176 63 0
-428 -120 0
-428 -26 0
-428 132 0
-428 182 0
-428 66 0
428 120 26 -132 -182 -66 0
-429 -100 0
-429 -93 0
-429 -87 0
-429 -30 0
-429 184 0
429 100 93 87 30 -184 0
-430 43 0
-430 -170 0
-430 -98 0
-430 -7 0
-430 -20 0
430 -43 170 98 7 20 0
426 427 428 429 430 0
